
        $ From http://www.csplib.org/Problems/prob009/data/helmut.pdf
        $ Problem number 147
        $ Sequence length : 25
        language ESSENCE' 1.0
        letting sizemaster be 503
        letting sizes be sequence(4,15,16,19,22,23,25,27,33,34,50,62,67,87,88,93,100,113,135,143,149,157,167,179,211)
        